\ENCODING=ISO-8859-1
\Problem name: ilog.cplex

Minimize
 obj:
Subject To
 c1:   x(0,1,0,2,3,2)(0) + x(0,1,0,2,3,2)(1) + x(0,1,0,2,3,2)(2)
       + x(0,1,0,2,3,2)(3)  = 1353
 c2:   x(0,1,0,2,3,3)(0) + x(0,1,0,2,3,3)(1) + x(0,1,0,2,3,3)(2)
       + x(0,1,0,2,3,3)(3)  = 4121
 c3:   x(0,1,0,2,5,1)(0) + x(0,1,0,2,5,1)(1) + x(0,1,0,2,5,1)(2)
       + x(0,1,0,2,5,1)(3)  = 64
 c4:   x(0,1,0,2,5,2)(0) + x(0,1,0,2,5,2)(1) + x(0,1,0,2,5,2)(2)
       + x(0,1,0,2,5,2)(3)  = 63
 c5:   x(0,1,0,2,5,3)(0) + x(0,1,0,2,5,3)(1) + x(0,1,0,2,5,3)(2)
       + x(0,1,0,2,5,3)(3)  = 335
 c6:   x(0,1,0,2,3,2)(0) - xNG(0,1,0,2,3,2)  = 0
 c7:   x(0,1,0,2,3,3)(0) - xNG(0,1,0,2,3,3)  = 0
 c8:   x(0,1,0,2,5,1)(0) - xNG(0,1,0,2,5,1)  = 0
 c9:   x(0,1,0,2,5,2)(0) - xNG(0,1,0,2,5,2)  = 0
 c10:  x(0,1,0,2,5,3)(0) - xNG(0,1,0,2,5,3)  = 0
 c11:  x(0,1,0,2,3,2)(1) - xPB(0,1,0,2,3,2)(0) - xPB(0,1,0,2,3,2)(1)
       - xPB(0,1,0,2,3,2)(2) - xPB(0,1,0,2,3,2)(3) - xPB(0,1,0,2,3,2)(4)  = 0
 c12:  x(0,1,0,2,3,3)(1) - xPB(0,1,0,2,3,3)(0) - xPB(0,1,0,2,3,3)(1)
       - xPB(0,1,0,2,3,3)(2) - xPB(0,1,0,2,3,3)(3) - xPB(0,1,0,2,3,3)(4)  = 0
 c13:  x(0,1,0,2,5,1)(1) - xPB(0,1,0,2,5,1)(0) - xPB(0,1,0,2,5,1)(1)
       - xPB(0,1,0,2,5,1)(2) - xPB(0,1,0,2,5,1)(3) - xPB(0,1,0,2,5,1)(4)  = 0
 c14:  x(0,1,0,2,5,2)(1) - xPB(0,1,0,2,5,2)(0) - xPB(0,1,0,2,5,2)(1)
       - xPB(0,1,0,2,5,2)(2) - xPB(0,1,0,2,5,2)(3) - xPB(0,1,0,2,5,2)(4)  = 0
 c15:  x(0,1,0,2,5,3)(1) - xPB(0,1,0,2,5,3)(0) - xPB(0,1,0,2,5,3)(1)
       - xPB(0,1,0,2,5,3)(2) - xPB(0,1,0,2,5,3)(3) - xPB(0,1,0,2,5,3)(4)  = 0
 c16:  x(0,1,0,2,3,2)(2) - xGS(0,1,0,2,3,2)(0) - xGS(0,1,0,2,3,2)(1)
       - xGS(0,1,0,2,3,2)(2) - xGS(0,1,0,2,3,2)(3) - xGS(0,1,0,2,3,2)(4)  = 0
 c17:  x(0,1,0,2,3,3)(2) - xGS(0,1,0,2,3,3)(0) - xGS(0,1,0,2,3,3)(1)
       - xGS(0,1,0,2,3,3)(2) - xGS(0,1,0,2,3,3)(3) - xGS(0,1,0,2,3,3)(4)  = 0
 c18:  x(0,1,0,2,5,1)(2) - xGS(0,1,0,2,5,1)(0) - xGS(0,1,0,2,5,1)(1)
       - xGS(0,1,0,2,5,1)(2) - xGS(0,1,0,2,5,1)(3) - xGS(0,1,0,2,5,1)(4)  = 0
 c19:  x(0,1,0,2,5,2)(2) - xGS(0,1,0,2,5,2)(0) - xGS(0,1,0,2,5,2)(1)
       - xGS(0,1,0,2,5,2)(2) - xGS(0,1,0,2,5,2)(3) - xGS(0,1,0,2,5,2)(4)  = 0
 c20:  x(0,1,0,2,5,3)(2) - xGS(0,1,0,2,5,3)(0) - xGS(0,1,0,2,5,3)(1)
       - xGS(0,1,0,2,5,3)(2) - xGS(0,1,0,2,5,3)(3) - xGS(0,1,0,2,5,3)(4)  = 0
 c21:  x(0,1,0,2,3,2)(3) - xEAe(0,1,0,2,3,2)(1) - xEAe'(0,1,0,2,3,2)(1)(3)  = 0
 c22:  x(0,1,0,2,3,3)(3) - xEAe(0,1,0,2,3,3)(1) - xEAe'(0,1,0,2,3,3)(1)(3)  = 0
 c23:  x(0,1,0,2,5,1)(3) - xEAe(0,1,0,2,5,1)(1) - xEAe'(0,1,0,2,5,1)(1)(5)  = 0
 c24:  x(0,1,0,2,5,2)(3) - xEAe(0,1,0,2,5,2)(1) - xEAe'(0,1,0,2,5,2)(1)(5)  = 0
 c25:  x(0,1,0,2,5,3)(3) - xEAe(0,1,0,2,5,3)(1) - xEAe'(0,1,0,2,5,3)(1)(5)  = 0
 c26:  xEAe(0,1,0,2,3,2)(5)  = 0
 c27:  xEAe(0,1,0,2,3,3)(5)  = 0
 c28:  xEAe(0,1,0,2,5,1)(5)  = 0
 c29:  xEAe(0,1,0,2,5,2)(5)  = 0
 c30:  xEAe(0,1,0,2,5,3)(5)  = 0
 c31:  xEAe(0,1,0,2,3,2)(1) - xEAe(0,1,0,2,3,2)(2) - xEAe'(0,1,0,2,3,2)(2)(3)
        = 0
 c32:  xEAe(0,1,0,2,3,2)(2) - xEAe(0,1,0,2,3,2)(3) - xEAe'(0,1,0,2,3,2)(3)(3)
        = 0
 c33:  xEAe(0,1,0,2,3,2)(3) - xEAe(0,1,0,2,3,2)(4) - xEAe'(0,1,0,2,3,2)(4)(3)
        = 0
 c34:  xEAe(0,1,0,2,3,2)(4) - xEAe(0,1,0,2,3,2)(5) - xEAe'(0,1,0,2,3,2)(5)(3)
        = 0
 c35:  xEAe(0,1,0,2,3,3)(1) - xEAe(0,1,0,2,3,3)(2) - xEAe'(0,1,0,2,3,3)(2)(3)
        = 0
 c36:  xEAe(0,1,0,2,3,3)(2) - xEAe(0,1,0,2,3,3)(3) - xEAe'(0,1,0,2,3,3)(3)(3)
        = 0
 c37:  xEAe(0,1,0,2,3,3)(3) - xEAe(0,1,0,2,3,3)(4) - xEAe'(0,1,0,2,3,3)(4)(3)
        = 0
 c38:  xEAe(0,1,0,2,3,3)(4) - xEAe(0,1,0,2,3,3)(5) - xEAe'(0,1,0,2,3,3)(5)(3)
        = 0
 c39:  xEAe(0,1,0,2,5,1)(1) - xEAe(0,1,0,2,5,1)(2) - xEAe'(0,1,0,2,5,1)(2)(5)
        = 0
 c40:  xEAe(0,1,0,2,5,1)(2) - xEAe(0,1,0,2,5,1)(3) - xEAe'(0,1,0,2,5,1)(3)(5)
        = 0
 c41:  xEAe(0,1,0,2,5,1)(3) - xEAe(0,1,0,2,5,1)(4) - xEAe'(0,1,0,2,5,1)(4)(5)
        = 0
 c42:  xEAe(0,1,0,2,5,1)(4) - xEAe(0,1,0,2,5,1)(5) - xEAe'(0,1,0,2,5,1)(5)(5)
        = 0
 c43:  xEAe(0,1,0,2,5,2)(1) - xEAe(0,1,0,2,5,2)(2) - xEAe'(0,1,0,2,5,2)(2)(5)
        = 0
 c44:  xEAe(0,1,0,2,5,2)(2) - xEAe(0,1,0,2,5,2)(3) - xEAe'(0,1,0,2,5,2)(3)(5)
        = 0
 c45:  xEAe(0,1,0,2,5,2)(3) - xEAe(0,1,0,2,5,2)(4) - xEAe'(0,1,0,2,5,2)(4)(5)
        = 0
 c46:  xEAe(0,1,0,2,5,2)(4) - xEAe(0,1,0,2,5,2)(5) - xEAe'(0,1,0,2,5,2)(5)(5)
        = 0
 c47:  xEAe(0,1,0,2,5,3)(1) - xEAe(0,1,0,2,5,3)(2) - xEAe'(0,1,0,2,5,3)(2)(5)
        = 0
 c48:  xEAe(0,1,0,2,5,3)(2) - xEAe(0,1,0,2,5,3)(3) - xEAe'(0,1,0,2,5,3)(3)(5)
        = 0
 c49:  xEAe(0,1,0,2,5,3)(3) - xEAe(0,1,0,2,5,3)(4) - xEAe'(0,1,0,2,5,3)(4)(5)
        = 0
 c50:  xEAe(0,1,0,2,5,3)(4) - xEAe(0,1,0,2,5,3)(5) - xEAe'(0,1,0,2,5,3)(5)(5)
        = 0
 c51:  xEAr(0,1,0,2,0)(2)(1) - xEAr(0,1,0,2,0)(3)(2)
       - xEAr'(0,1,0,2,0)(3)(2)(0)  = 0
 c52:  xEAr(0,1,0,2,0)(3)(1) - xEAr(0,1,0,2,0)(4)(2)
       - xEAr'(0,1,0,2,0)(4)(2)(0)  = 0
 c53:  xEAr(0,1,0,2,0)(3)(2) - xEAr(0,1,0,2,0)(4)(3)
       - xEAr'(0,1,0,2,0)(4)(3)(0)  = 0
 c54:  xEAr(0,1,0,2,0)(4)(1) - xEAr(0,1,0,2,0)(5)(2)
       - xEAr'(0,1,0,2,0)(5)(2)(0)  = 0
 c55:  xEAr(0,1,0,2,0)(4)(2) - xEAr(0,1,0,2,0)(5)(3)
       - xEAr'(0,1,0,2,0)(5)(3)(0)  = 0
 c56:  xEAr(0,1,0,2,0)(4)(3) - xEAr(0,1,0,2,0)(5)(4)
       - xEAr'(0,1,0,2,0)(5)(4)(0)  = 0
 c57:  xEAr(0,1,0,2,1)(2)(1) - xEAr(0,1,0,2,1)(3)(2)
       - xEAr'(0,1,0,2,1)(3)(2)(1)  = 0
 c58:  xEAr(0,1,0,2,1)(3)(1) - xEAr(0,1,0,2,1)(4)(2)
       - xEAr'(0,1,0,2,1)(4)(2)(1)  = 0
 c59:  xEAr(0,1,0,2,1)(3)(2) - xEAr(0,1,0,2,1)(4)(3)
       - xEAr'(0,1,0,2,1)(4)(3)(1)  = 0
 c60:  xEAr(0,1,0,2,1)(4)(1) - xEAr(0,1,0,2,1)(5)(2)
       - xEAr'(0,1,0,2,1)(5)(2)(1)  = 0
 c61:  xEAr(0,1,0,2,1)(4)(2) - xEAr(0,1,0,2,1)(5)(3)
       - xEAr'(0,1,0,2,1)(5)(3)(1)  = 0
 c62:  xEAr(0,1,0,2,1)(4)(3) - xEAr(0,1,0,2,1)(5)(4)
       - xEAr'(0,1,0,2,1)(5)(4)(1)  = 0
 c63:  xEAr(0,1,0,2,2)(2)(1) - xEAr(0,1,0,2,2)(3)(2)
       - xEAr'(0,1,0,2,2)(3)(2)(2)  = 0
 c64:  xEAr(0,1,0,2,2)(3)(1) - xEAr(0,1,0,2,2)(4)(2)
       - xEAr'(0,1,0,2,2)(4)(2)(2)  = 0
 c65:  xEAr(0,1,0,2,2)(3)(2) - xEAr(0,1,0,2,2)(4)(3)
       - xEAr'(0,1,0,2,2)(4)(3)(2)  = 0
 c66:  xEAr(0,1,0,2,2)(4)(1) - xEAr(0,1,0,2,2)(5)(2)
       - xEAr'(0,1,0,2,2)(5)(2)(2)  = 0
 c67:  xEAr(0,1,0,2,2)(4)(2) - xEAr(0,1,0,2,2)(5)(3)
       - xEAr'(0,1,0,2,2)(5)(3)(2)  = 0
 c68:  xEAr(0,1,0,2,2)(4)(3) - xEAr(0,1,0,2,2)(5)(4)
       - xEAr'(0,1,0,2,2)(5)(4)(2)  = 0
 c69:  xEAr(0,1,0,2,3)(2)(1) - xEAr(0,1,0,2,3)(3)(2)
       - xEAr'(0,1,0,2,3)(3)(2)(3)  = 0
 c70:  xEAr(0,1,0,2,3)(3)(1) - xEAr(0,1,0,2,3)(4)(2)
       - xEAr'(0,1,0,2,3)(4)(2)(3)  = 0
 c71:  xEAr(0,1,0,2,3)(3)(2) - xEAr(0,1,0,2,3)(4)(3)
       - xEAr'(0,1,0,2,3)(4)(3)(3)  = 0
 c72:  xEAr(0,1,0,2,3)(4)(1) - xEAr(0,1,0,2,3)(5)(2)
       - xEAr'(0,1,0,2,3)(5)(2)(3)  = 0
 c73:  xEAr(0,1,0,2,3)(4)(2) - xEAr(0,1,0,2,3)(5)(3)
       - xEAr'(0,1,0,2,3)(5)(3)(3)  = 0
 c74:  xEAr(0,1,0,2,3)(4)(3) - xEAr(0,1,0,2,3)(5)(4)
       - xEAr'(0,1,0,2,3)(5)(4)(3)  = 0
 c75:  xEAr(0,1,0,2,4)(2)(1) - xEAr(0,1,0,2,4)(3)(2)
       - xEAr'(0,1,0,2,4)(3)(2)(4)  = 0
 c76:  xEAr(0,1,0,2,4)(3)(1) - xEAr(0,1,0,2,4)(4)(2)
       - xEAr'(0,1,0,2,4)(4)(2)(4)  = 0
 c77:  xEAr(0,1,0,2,4)(3)(2) - xEAr(0,1,0,2,4)(4)(3)
       - xEAr'(0,1,0,2,4)(4)(3)(4)  = 0
 c78:  xEAr(0,1,0,2,4)(4)(1) - xEAr(0,1,0,2,4)(5)(2)
       - xEAr'(0,1,0,2,4)(5)(2)(4)  = 0
 c79:  xEAr(0,1,0,2,4)(4)(2) - xEAr(0,1,0,2,4)(5)(3)
       - xEAr'(0,1,0,2,4)(5)(3)(4)  = 0
 c80:  xEAr(0,1,0,2,4)(4)(3) - xEAr(0,1,0,2,4)(5)(4)
       - xEAr'(0,1,0,2,4)(5)(4)(4)  = 0
 c81:  xEAr(0,1,0,2,5)(2)(1) - xEAr(0,1,0,2,5)(3)(2)
       - xEAr'(0,1,0,2,5)(3)(2)(5)  = 0
 c82:  xEAr(0,1,0,2,5)(3)(1) - xEAr(0,1,0,2,5)(4)(2)
       - xEAr'(0,1,0,2,5)(4)(2)(5)  = 0
 c83:  xEAr(0,1,0,2,5)(3)(2) - xEAr(0,1,0,2,5)(4)(3)
       - xEAr'(0,1,0,2,5)(4)(3)(5)  = 0
 c84:  xEAr(0,1,0,2,5)(4)(1) - xEAr(0,1,0,2,5)(5)(2)
       - xEAr'(0,1,0,2,5)(5)(2)(5)  = 0
 c85:  xEAr(0,1,0,2,5)(4)(2) - xEAr(0,1,0,2,5)(5)(3)
       - xEAr'(0,1,0,2,5)(5)(3)(5)  = 0
 c86:  xEAr(0,1,0,2,5)(4)(3) - xEAr(0,1,0,2,5)(5)(4)
       - xEAr'(0,1,0,2,5)(5)(4)(5)  = 0
 c87:  xEAr(0,1,0,2,6)(2)(1) - xEAr(0,1,0,2,6)(3)(2)
       - xEAr'(0,1,0,2,6)(3)(2)(6)  = 0
 c88:  xEAr(0,1,0,2,6)(3)(1) - xEAr(0,1,0,2,6)(4)(2)
       - xEAr'(0,1,0,2,6)(4)(2)(6)  = 0
 c89:  xEAr(0,1,0,2,6)(3)(2) - xEAr(0,1,0,2,6)(4)(3)
       - xEAr'(0,1,0,2,6)(4)(3)(6)  = 0
 c90:  xEAr(0,1,0,2,6)(4)(1) - xEAr(0,1,0,2,6)(5)(2)
       - xEAr'(0,1,0,2,6)(5)(2)(6)  = 0
 c91:  xEAr(0,1,0,2,6)(4)(2) - xEAr(0,1,0,2,6)(5)(3)
       - xEAr'(0,1,0,2,6)(5)(3)(6)  = 0
 c92:  xEAr(0,1,0,2,6)(4)(3) - xEAr(0,1,0,2,6)(5)(4)
       - xEAr'(0,1,0,2,6)(5)(4)(6)  = 0
 c93:  xEAr(0,1,0,2,7)(2)(1) - xEAr(0,1,0,2,7)(3)(2)
       - xEAr'(0,1,0,2,7)(3)(2)(7)  = 0
 c94:  xEAr(0,1,0,2,7)(3)(1) - xEAr(0,1,0,2,7)(4)(2)
       - xEAr'(0,1,0,2,7)(4)(2)(7)  = 0
 c95:  xEAr(0,1,0,2,7)(3)(2) - xEAr(0,1,0,2,7)(4)(3)
       - xEAr'(0,1,0,2,7)(4)(3)(7)  = 0
 c96:  xEAr(0,1,0,2,7)(4)(1) - xEAr(0,1,0,2,7)(5)(2)
       - xEAr'(0,1,0,2,7)(5)(2)(7)  = 0
 c97:  xEAr(0,1,0,2,7)(4)(2) - xEAr(0,1,0,2,7)(5)(3)
       - xEAr'(0,1,0,2,7)(5)(3)(7)  = 0
 c98:  xEAr(0,1,0,2,7)(4)(3) - xEAr(0,1,0,2,7)(5)(4)
       - xEAr'(0,1,0,2,7)(5)(4)(7)  = 0
 c99:  - xEAr(0,1,0,2,0)(2)(1) - xEAr'(0,1,0,2,0)(2)(1)(0)  = 0
 c100: - xEAr(0,1,0,2,1)(2)(1) - xEAr'(0,1,0,2,1)(2)(1)(1)  = 0
 c101: - xEAr(0,1,0,2,2)(2)(1) - xEAr'(0,1,0,2,2)(2)(1)(2)  = 0
 c102: xEAe'(0,1,0,2,3,2)(1)(3) + xEAe'(0,1,0,2,3,3)(1)(3)
       - xEAr(0,1,0,2,3)(2)(1) - xEAr'(0,1,0,2,3)(2)(1)(3)  = 0
 c103: - xEAr(0,1,0,2,4)(2)(1) - xEAr'(0,1,0,2,4)(2)(1)(4)  = 0
 c104: xEAe'(0,1,0,2,5,1)(1)(5) + xEAe'(0,1,0,2,5,2)(1)(5)
       + xEAe'(0,1,0,2,5,3)(1)(5) - xEAr(0,1,0,2,5)(2)(1)
       - xEAr'(0,1,0,2,5)(2)(1)(5)  = 0
 c105: - xEAr(0,1,0,2,6)(2)(1) - xEAr'(0,1,0,2,6)(2)(1)(6)  = 0
 c106: - xEAr(0,1,0,2,7)(2)(1) - xEAr'(0,1,0,2,7)(2)(1)(7)  = 0
 c107: - xEAr(0,1,0,2,0)(3)(1) + xEAr'(0,1,0,2,0)(2)(1)(0)
       - xEAr'(0,1,0,2,0)(3)(1)(0)  = 0
 c108: - xEAr(0,1,0,2,1)(3)(1) + xEAr'(0,1,0,2,1)(2)(1)(1)
       - xEAr'(0,1,0,2,1)(3)(1)(1)  = 0
 c109: - xEAr(0,1,0,2,2)(3)(1) + xEAr'(0,1,0,2,2)(2)(1)(2)
       - xEAr'(0,1,0,2,2)(3)(1)(2)  = 0
 c110: xEAe'(0,1,0,2,3,2)(2)(3) + xEAe'(0,1,0,2,3,3)(2)(3)
       - xEAr(0,1,0,2,3)(3)(1) + xEAr'(0,1,0,2,3)(2)(1)(3)
       - xEAr'(0,1,0,2,3)(3)(1)(3)  = 0
 c111: - xEAr(0,1,0,2,4)(3)(1) + xEAr'(0,1,0,2,4)(2)(1)(4)
       - xEAr'(0,1,0,2,4)(3)(1)(4)  = 0
 c112: xEAe'(0,1,0,2,5,1)(2)(5) + xEAe'(0,1,0,2,5,2)(2)(5)
       + xEAe'(0,1,0,2,5,3)(2)(5) - xEAr(0,1,0,2,5)(3)(1)
       + xEAr'(0,1,0,2,5)(2)(1)(5) - xEAr'(0,1,0,2,5)(3)(1)(5)  = 0
 c113: - xEAr(0,1,0,2,6)(3)(1) + xEAr'(0,1,0,2,6)(2)(1)(6)
       - xEAr'(0,1,0,2,6)(3)(1)(6)  = 0
 c114: - xEAr(0,1,0,2,7)(3)(1) + xEAr'(0,1,0,2,7)(2)(1)(7)
       - xEAr'(0,1,0,2,7)(3)(1)(7)  = 0
 c115: - xEAr(0,1,0,2,0)(4)(1) + xEAr'(0,1,0,2,0)(3)(1)(0)
       + xEAr'(0,1,0,2,0)(3)(2)(0) - xEAr'(0,1,0,2,0)(4)(1)(0)  = 0
 c116: - xEAr(0,1,0,2,1)(4)(1) + xEAr'(0,1,0,2,1)(3)(1)(1)
       + xEAr'(0,1,0,2,1)(3)(2)(1) - xEAr'(0,1,0,2,1)(4)(1)(1)  = 0
 c117: - xEAr(0,1,0,2,2)(4)(1) + xEAr'(0,1,0,2,2)(3)(1)(2)
       + xEAr'(0,1,0,2,2)(3)(2)(2) - xEAr'(0,1,0,2,2)(4)(1)(2)  = 0
 c118: xEAe'(0,1,0,2,3,2)(3)(3) + xEAe'(0,1,0,2,3,3)(3)(3)
       - xEAr(0,1,0,2,3)(4)(1) + xEAr'(0,1,0,2,3)(3)(1)(3)
       + xEAr'(0,1,0,2,3)(3)(2)(3) - xEAr'(0,1,0,2,3)(4)(1)(3)  = 0
 c119: - xEAr(0,1,0,2,4)(4)(1) + xEAr'(0,1,0,2,4)(3)(1)(4)
       + xEAr'(0,1,0,2,4)(3)(2)(4) - xEAr'(0,1,0,2,4)(4)(1)(4)  = 0
 c120: xEAe'(0,1,0,2,5,1)(3)(5) + xEAe'(0,1,0,2,5,2)(3)(5)
       + xEAe'(0,1,0,2,5,3)(3)(5) - xEAr(0,1,0,2,5)(4)(1)
       + xEAr'(0,1,0,2,5)(3)(1)(5) + xEAr'(0,1,0,2,5)(3)(2)(5)
       - xEAr'(0,1,0,2,5)(4)(1)(5)  = 0
 c121: - xEAr(0,1,0,2,6)(4)(1) + xEAr'(0,1,0,2,6)(3)(1)(6)
       + xEAr'(0,1,0,2,6)(3)(2)(6) - xEAr'(0,1,0,2,6)(4)(1)(6)  = 0
 c122: - xEAr(0,1,0,2,7)(4)(1) + xEAr'(0,1,0,2,7)(3)(1)(7)
       + xEAr'(0,1,0,2,7)(3)(2)(7) - xEAr'(0,1,0,2,7)(4)(1)(7)  = 0
 c123: - xEAr(0,1,0,2,0)(5)(1) + xEAr'(0,1,0,2,0)(4)(1)(0)
       + xEAr'(0,1,0,2,0)(4)(2)(0) + xEAr'(0,1,0,2,0)(4)(3)(0)
       - xEAr'(0,1,0,2,0)(5)(1)(0)  = 0
 c124: - xEAr(0,1,0,2,1)(5)(1) + xEAr'(0,1,0,2,1)(4)(1)(1)
       + xEAr'(0,1,0,2,1)(4)(2)(1) + xEAr'(0,1,0,2,1)(4)(3)(1)
       - xEAr'(0,1,0,2,1)(5)(1)(1)  = 0
 c125: - xEAr(0,1,0,2,2)(5)(1) + xEAr'(0,1,0,2,2)(4)(1)(2)
       + xEAr'(0,1,0,2,2)(4)(2)(2) + xEAr'(0,1,0,2,2)(4)(3)(2)
       - xEAr'(0,1,0,2,2)(5)(1)(2)  = 0
 c126: xEAe'(0,1,0,2,3,2)(4)(3) + xEAe'(0,1,0,2,3,3)(4)(3)
       - xEAr(0,1,0,2,3)(5)(1) + xEAr'(0,1,0,2,3)(4)(1)(3)
       + xEAr'(0,1,0,2,3)(4)(2)(3) + xEAr'(0,1,0,2,3)(4)(3)(3)
       - xEAr'(0,1,0,2,3)(5)(1)(3)  = 0
 c127: - xEAr(0,1,0,2,4)(5)(1) + xEAr'(0,1,0,2,4)(4)(1)(4)
       + xEAr'(0,1,0,2,4)(4)(2)(4) + xEAr'(0,1,0,2,4)(4)(3)(4)
       - xEAr'(0,1,0,2,4)(5)(1)(4)  = 0
 c128: xEAe'(0,1,0,2,5,1)(4)(5) + xEAe'(0,1,0,2,5,2)(4)(5)
       + xEAe'(0,1,0,2,5,3)(4)(5) - xEAr(0,1,0,2,5)(5)(1)
       + xEAr'(0,1,0,2,5)(4)(1)(5) + xEAr'(0,1,0,2,5)(4)(2)(5)
       + xEAr'(0,1,0,2,5)(4)(3)(5) - xEAr'(0,1,0,2,5)(5)(1)(5)  = 0
 c129: - xEAr(0,1,0,2,6)(5)(1) + xEAr'(0,1,0,2,6)(4)(1)(6)
       + xEAr'(0,1,0,2,6)(4)(2)(6) + xEAr'(0,1,0,2,6)(4)(3)(6)
       - xEAr'(0,1,0,2,6)(5)(1)(6)  = 0
 c130: - xEAr(0,1,0,2,7)(5)(1) + xEAr'(0,1,0,2,7)(4)(1)(7)
       + xEAr'(0,1,0,2,7)(4)(2)(7) + xEAr'(0,1,0,2,7)(4)(3)(7)
       - xEAr'(0,1,0,2,7)(5)(1)(7)  = 0
 c131: - xEAe(0,1,0,2,3,2)(1) + xEAe'(0,1,0,2,3,2)(1)(3)
       + xEAe'(0,1,0,2,3,2)(2)(3) + xEAe'(0,1,0,2,3,2)(3)(3)
       + xEAe'(0,1,0,2,3,2)(4)(3) + xEAe'(0,1,0,2,3,2)(5)(3)
       + xEAeR(0,1,0,2,3,2)(1)  = 0
 c132: - xEAe(0,1,0,2,3,2)(2) + xEAe'(0,1,0,2,3,2)(2)(3)
       + xEAe'(0,1,0,2,3,2)(3)(3) + xEAe'(0,1,0,2,3,2)(4)(3)
       + xEAe'(0,1,0,2,3,2)(5)(3) + xEAeR(0,1,0,2,3,2)(2)  = 0
 c133: - xEAe(0,1,0,2,3,2)(3) + xEAe'(0,1,0,2,3,2)(3)(3)
       + xEAe'(0,1,0,2,3,2)(4)(3) + xEAe'(0,1,0,2,3,2)(5)(3)
       + xEAeR(0,1,0,2,3,2)(3)  = 0
 c134: - xEAe(0,1,0,2,3,2)(4) + xEAe'(0,1,0,2,3,2)(4)(3)
       + xEAe'(0,1,0,2,3,2)(5)(3) + xEAeR(0,1,0,2,3,2)(4)  = 0
 c135: - xEAe(0,1,0,2,3,2)(5) + xEAe'(0,1,0,2,3,2)(5)(3)
       + xEAeR(0,1,0,2,3,2)(5)  = 0
 c136: - xEAe(0,1,0,2,3,3)(1) + xEAe'(0,1,0,2,3,3)(1)(3)
       + xEAe'(0,1,0,2,3,3)(2)(3) + xEAe'(0,1,0,2,3,3)(3)(3)
       + xEAe'(0,1,0,2,3,3)(4)(3) + xEAe'(0,1,0,2,3,3)(5)(3)
       + xEAeR(0,1,0,2,3,3)(1)  = 0
 c137: - xEAe(0,1,0,2,3,3)(2) + xEAe'(0,1,0,2,3,3)(2)(3)
       + xEAe'(0,1,0,2,3,3)(3)(3) + xEAe'(0,1,0,2,3,3)(4)(3)
       + xEAe'(0,1,0,2,3,3)(5)(3) + xEAeR(0,1,0,2,3,3)(2)  = 0
 c138: - xEAe(0,1,0,2,3,3)(3) + xEAe'(0,1,0,2,3,3)(3)(3)
       + xEAe'(0,1,0,2,3,3)(4)(3) + xEAe'(0,1,0,2,3,3)(5)(3)
       + xEAeR(0,1,0,2,3,3)(3)  = 0
 c139: - xEAe(0,1,0,2,3,3)(4) + xEAe'(0,1,0,2,3,3)(4)(3)
       + xEAe'(0,1,0,2,3,3)(5)(3) + xEAeR(0,1,0,2,3,3)(4)  = 0
 c140: - xEAe(0,1,0,2,3,3)(5) + xEAe'(0,1,0,2,3,3)(5)(3)
       + xEAeR(0,1,0,2,3,3)(5)  = 0
 c141: - xEAe(0,1,0,2,5,1)(1) + xEAe'(0,1,0,2,5,1)(1)(5)
       + xEAe'(0,1,0,2,5,1)(2)(5) + xEAe'(0,1,0,2,5,1)(3)(5)
       + xEAe'(0,1,0,2,5,1)(4)(5) + xEAe'(0,1,0,2,5,1)(5)(5)
       + xEAeR(0,1,0,2,5,1)(1)  = 0
 c142: - xEAe(0,1,0,2,5,1)(2) + xEAe'(0,1,0,2,5,1)(2)(5)
       + xEAe'(0,1,0,2,5,1)(3)(5) + xEAe'(0,1,0,2,5,1)(4)(5)
       + xEAe'(0,1,0,2,5,1)(5)(5) + xEAeR(0,1,0,2,5,1)(2)  = 0
 c143: - xEAe(0,1,0,2,5,1)(3) + xEAe'(0,1,0,2,5,1)(3)(5)
       + xEAe'(0,1,0,2,5,1)(4)(5) + xEAe'(0,1,0,2,5,1)(5)(5)
       + xEAeR(0,1,0,2,5,1)(3)  = 0
 c144: - xEAe(0,1,0,2,5,1)(4) + xEAe'(0,1,0,2,5,1)(4)(5)
       + xEAe'(0,1,0,2,5,1)(5)(5) + xEAeR(0,1,0,2,5,1)(4)  = 0
 c145: - xEAe(0,1,0,2,5,1)(5) + xEAe'(0,1,0,2,5,1)(5)(5)
       + xEAeR(0,1,0,2,5,1)(5)  = 0
 c146: - xEAe(0,1,0,2,5,2)(1) + xEAe'(0,1,0,2,5,2)(1)(5)
       + xEAe'(0,1,0,2,5,2)(2)(5) + xEAe'(0,1,0,2,5,2)(3)(5)
       + xEAe'(0,1,0,2,5,2)(4)(5) + xEAe'(0,1,0,2,5,2)(5)(5)
       + xEAeR(0,1,0,2,5,2)(1)  = 0
 c147: - xEAe(0,1,0,2,5,2)(2) + xEAe'(0,1,0,2,5,2)(2)(5)
       + xEAe'(0,1,0,2,5,2)(3)(5) + xEAe'(0,1,0,2,5,2)(4)(5)
       + xEAe'(0,1,0,2,5,2)(5)(5) + xEAeR(0,1,0,2,5,2)(2)  = 0
 c148: - xEAe(0,1,0,2,5,2)(3) + xEAe'(0,1,0,2,5,2)(3)(5)
       + xEAe'(0,1,0,2,5,2)(4)(5) + xEAe'(0,1,0,2,5,2)(5)(5)
       + xEAeR(0,1,0,2,5,2)(3)  = 0
 c149: - xEAe(0,1,0,2,5,2)(4) + xEAe'(0,1,0,2,5,2)(4)(5)
       + xEAe'(0,1,0,2,5,2)(5)(5) + xEAeR(0,1,0,2,5,2)(4)  = 0
 c150: - xEAe(0,1,0,2,5,2)(5) + xEAe'(0,1,0,2,5,2)(5)(5)
       + xEAeR(0,1,0,2,5,2)(5)  = 0
 c151: - xEAe(0,1,0,2,5,3)(1) + xEAe'(0,1,0,2,5,3)(1)(5)
       + xEAe'(0,1,0,2,5,3)(2)(5) + xEAe'(0,1,0,2,5,3)(3)(5)
       + xEAe'(0,1,0,2,5,3)(4)(5) + xEAe'(0,1,0,2,5,3)(5)(5)
       + xEAeR(0,1,0,2,5,3)(1)  = 0
 c152: - xEAe(0,1,0,2,5,3)(2) + xEAe'(0,1,0,2,5,3)(2)(5)
       + xEAe'(0,1,0,2,5,3)(3)(5) + xEAe'(0,1,0,2,5,3)(4)(5)
       + xEAe'(0,1,0,2,5,3)(5)(5) + xEAeR(0,1,0,2,5,3)(2)  = 0
 c153: - xEAe(0,1,0,2,5,3)(3) + xEAe'(0,1,0,2,5,3)(3)(5)
       + xEAe'(0,1,0,2,5,3)(4)(5) + xEAe'(0,1,0,2,5,3)(5)(5)
       + xEAeR(0,1,0,2,5,3)(3)  = 0
 c154: - xEAe(0,1,0,2,5,3)(4) + xEAe'(0,1,0,2,5,3)(4)(5)
       + xEAe'(0,1,0,2,5,3)(5)(5) + xEAeR(0,1,0,2,5,3)(4)  = 0
 c155: - xEAe(0,1,0,2,5,3)(5) + xEAe'(0,1,0,2,5,3)(5)(5)
       + xEAeR(0,1,0,2,5,3)(5)  = 0
 c156: x(0,1,0,2,3,2)(0) - xEAr(0,1,0,2,0)(2)(1) + xEAr'(0,1,0,2,0)(3)(1)(0)
       + xEAr'(0,1,0,2,0)(4)(2)(0) + xEAr'(0,1,0,2,0)(5)(3)(0)
       + xEArR(0,1,0,2,0)(2)(1)  = 0
 c157: x(0,1,0,2,3,2)(0) - xEAr(0,1,0,2,0)(3)(1) + xEAr'(0,1,0,2,0)(4)(1)(0)
       + xEAr'(0,1,0,2,0)(5)(2)(0) + xEArR(0,1,0,2,0)(3)(1)  = 0
 c158: x(0,1,0,2,3,2)(0) - xEAr(0,1,0,2,0)(3)(2) + xEAr'(0,1,0,2,0)(4)(1)(0)
       + xEAr'(0,1,0,2,0)(5)(2)(0) + xEArR(0,1,0,2,0)(3)(2)  = 0
 c159: x(0,1,0,2,3,2)(0) - xEAr(0,1,0,2,0)(4)(1) + xEAr'(0,1,0,2,0)(5)(1)(0)
       + xEArR(0,1,0,2,0)(4)(1)  = 0
 c160: x(0,1,0,2,3,2)(0) - xEAr(0,1,0,2,0)(4)(2) + xEAr'(0,1,0,2,0)(5)(1)(0)
       + xEArR(0,1,0,2,0)(4)(2)  = 0
 c161: x(0,1,0,2,3,2)(0) - xEAr(0,1,0,2,0)(4)(3) + xEAr'(0,1,0,2,0)(5)(1)(0)
       + xEArR(0,1,0,2,0)(4)(3)  = 0
 c162: x(0,1,0,2,3,2)(0) - xEAr(0,1,0,2,0)(5)(1) + xEArR(0,1,0,2,0)(5)(1)  = 0
 c163: x(0,1,0,2,3,2)(0) - xEAr(0,1,0,2,0)(5)(2) + xEArR(0,1,0,2,0)(5)(2)  = 0
 c164: x(0,1,0,2,3,2)(0) - xEAr(0,1,0,2,0)(5)(3) + xEArR(0,1,0,2,0)(5)(3)  = 0
 c165: x(0,1,0,2,3,2)(0) - xEAr(0,1,0,2,0)(5)(4) + xEArR(0,1,0,2,0)(5)(4)  = 0
 c166: x(0,1,0,2,3,2)(0) - xEAr(0,1,0,2,1)(2)(1) + xEAr'(0,1,0,2,1)(3)(1)(1)
       + xEAr'(0,1,0,2,1)(4)(2)(1) + xEAr'(0,1,0,2,1)(5)(3)(1)
       + xEArR(0,1,0,2,1)(2)(1)  = 0
 c167: x(0,1,0,2,3,2)(0) - xEAr(0,1,0,2,1)(3)(1) + xEAr'(0,1,0,2,1)(4)(1)(1)
       + xEAr'(0,1,0,2,1)(5)(2)(1) + xEArR(0,1,0,2,1)(3)(1)  = 0
 c168: x(0,1,0,2,3,2)(0) - xEAr(0,1,0,2,1)(3)(2) + xEAr'(0,1,0,2,1)(4)(1)(1)
       + xEAr'(0,1,0,2,1)(5)(2)(1) + xEArR(0,1,0,2,1)(3)(2)  = 0
 c169: x(0,1,0,2,3,2)(0) - xEAr(0,1,0,2,1)(4)(1) + xEAr'(0,1,0,2,1)(5)(1)(1)
       + xEArR(0,1,0,2,1)(4)(1)  = 0
 c170: x(0,1,0,2,3,2)(0) - xEAr(0,1,0,2,1)(4)(2) + xEAr'(0,1,0,2,1)(5)(1)(1)
       + xEArR(0,1,0,2,1)(4)(2)  = 0
 c171: x(0,1,0,2,3,2)(0) - xEAr(0,1,0,2,1)(4)(3) + xEAr'(0,1,0,2,1)(5)(1)(1)
       + xEArR(0,1,0,2,1)(4)(3)  = 0
 c172: x(0,1,0,2,3,2)(0) - xEAr(0,1,0,2,1)(5)(1) + xEArR(0,1,0,2,1)(5)(1)  = 0
 c173: x(0,1,0,2,3,2)(0) - xEAr(0,1,0,2,1)(5)(2) + xEArR(0,1,0,2,1)(5)(2)  = 0
 c174: x(0,1,0,2,3,2)(0) - xEAr(0,1,0,2,1)(5)(3) + xEArR(0,1,0,2,1)(5)(3)  = 0
 c175: x(0,1,0,2,3,2)(0) - xEAr(0,1,0,2,1)(5)(4) + xEArR(0,1,0,2,1)(5)(4)  = 0
 c176: x(0,1,0,2,3,2)(0) - xEAr(0,1,0,2,2)(2)(1) + xEAr'(0,1,0,2,2)(3)(1)(2)
       + xEAr'(0,1,0,2,2)(4)(2)(2) + xEAr'(0,1,0,2,2)(5)(3)(2)
       + xEArR(0,1,0,2,2)(2)(1)  = 0
 c177: x(0,1,0,2,3,2)(0) - xEAr(0,1,0,2,2)(3)(1) + xEAr'(0,1,0,2,2)(4)(1)(2)
       + xEAr'(0,1,0,2,2)(5)(2)(2) + xEArR(0,1,0,2,2)(3)(1)  = 0
 c178: x(0,1,0,2,3,2)(0) - xEAr(0,1,0,2,2)(3)(2) + xEAr'(0,1,0,2,2)(4)(1)(2)
       + xEAr'(0,1,0,2,2)(5)(2)(2) + xEArR(0,1,0,2,2)(3)(2)  = 0
 c179: x(0,1,0,2,3,2)(0) - xEAr(0,1,0,2,2)(4)(1) + xEAr'(0,1,0,2,2)(5)(1)(2)
       + xEArR(0,1,0,2,2)(4)(1)  = 0
 c180: x(0,1,0,2,3,2)(0) - xEAr(0,1,0,2,2)(4)(2) + xEAr'(0,1,0,2,2)(5)(1)(2)
       + xEArR(0,1,0,2,2)(4)(2)  = 0
 c181: x(0,1,0,2,3,2)(0) - xEAr(0,1,0,2,2)(4)(3) + xEAr'(0,1,0,2,2)(5)(1)(2)
       + xEArR(0,1,0,2,2)(4)(3)  = 0
 c182: x(0,1,0,2,3,2)(0) - xEAr(0,1,0,2,2)(5)(1) + xEArR(0,1,0,2,2)(5)(1)  = 0
 c183: x(0,1,0,2,3,2)(0) - xEAr(0,1,0,2,2)(5)(2) + xEArR(0,1,0,2,2)(5)(2)  = 0
 c184: x(0,1,0,2,3,2)(0) - xEAr(0,1,0,2,2)(5)(3) + xEArR(0,1,0,2,2)(5)(3)  = 0
 c185: x(0,1,0,2,3,2)(0) - xEAr(0,1,0,2,2)(5)(4) + xEArR(0,1,0,2,2)(5)(4)  = 0
 c186: x(0,1,0,2,3,2)(0) - xEAr(0,1,0,2,3)(2)(1) + xEAr'(0,1,0,2,3)(3)(1)(3)
       + xEAr'(0,1,0,2,3)(4)(2)(3) + xEAr'(0,1,0,2,3)(5)(3)(3)
       + xEArR(0,1,0,2,3)(2)(1)  = 0
 c187: x(0,1,0,2,3,2)(0) - xEAr(0,1,0,2,3)(3)(1) + xEAr'(0,1,0,2,3)(4)(1)(3)
       + xEAr'(0,1,0,2,3)(5)(2)(3) + xEArR(0,1,0,2,3)(3)(1)  = 0
 c188: x(0,1,0,2,3,2)(0) - xEAr(0,1,0,2,3)(3)(2) + xEAr'(0,1,0,2,3)(4)(1)(3)
       + xEAr'(0,1,0,2,3)(5)(2)(3) + xEArR(0,1,0,2,3)(3)(2)  = 0
 c189: x(0,1,0,2,3,2)(0) - xEAr(0,1,0,2,3)(4)(1) + xEAr'(0,1,0,2,3)(5)(1)(3)
       + xEArR(0,1,0,2,3)(4)(1)  = 0
 c190: x(0,1,0,2,3,2)(0) - xEAr(0,1,0,2,3)(4)(2) + xEAr'(0,1,0,2,3)(5)(1)(3)
       + xEArR(0,1,0,2,3)(4)(2)  = 0
 c191: x(0,1,0,2,3,2)(0) - xEAr(0,1,0,2,3)(4)(3) + xEAr'(0,1,0,2,3)(5)(1)(3)
       + xEArR(0,1,0,2,3)(4)(3)  = 0
 c192: x(0,1,0,2,3,2)(0) - xEAr(0,1,0,2,3)(5)(1) + xEArR(0,1,0,2,3)(5)(1)  = 0
 c193: x(0,1,0,2,3,2)(0) - xEAr(0,1,0,2,3)(5)(2) + xEArR(0,1,0,2,3)(5)(2)  = 0
 c194: x(0,1,0,2,3,2)(0) - xEAr(0,1,0,2,3)(5)(3) + xEArR(0,1,0,2,3)(5)(3)  = 0
 c195: x(0,1,0,2,3,2)(0) - xEAr(0,1,0,2,3)(5)(4) + xEArR(0,1,0,2,3)(5)(4)  = 0
 c196: x(0,1,0,2,3,2)(0) - xEAr(0,1,0,2,4)(2)(1) + xEAr'(0,1,0,2,4)(3)(1)(4)
       + xEAr'(0,1,0,2,4)(4)(2)(4) + xEAr'(0,1,0,2,4)(5)(3)(4)
       + xEArR(0,1,0,2,4)(2)(1)  = 0
 c197: x(0,1,0,2,3,2)(0) - xEAr(0,1,0,2,4)(3)(1) + xEAr'(0,1,0,2,4)(4)(1)(4)
       + xEAr'(0,1,0,2,4)(5)(2)(4) + xEArR(0,1,0,2,4)(3)(1)  = 0
 c198: x(0,1,0,2,3,2)(0) - xEAr(0,1,0,2,4)(3)(2) + xEAr'(0,1,0,2,4)(4)(1)(4)
       + xEAr'(0,1,0,2,4)(5)(2)(4) + xEArR(0,1,0,2,4)(3)(2)  = 0
 c199: x(0,1,0,2,3,2)(0) - xEAr(0,1,0,2,4)(4)(1) + xEAr'(0,1,0,2,4)(5)(1)(4)
       + xEArR(0,1,0,2,4)(4)(1)  = 0
 c200: x(0,1,0,2,3,2)(0) - xEAr(0,1,0,2,4)(4)(2) + xEAr'(0,1,0,2,4)(5)(1)(4)
       + xEArR(0,1,0,2,4)(4)(2)  = 0
 c201: x(0,1,0,2,3,2)(0) - xEAr(0,1,0,2,4)(4)(3) + xEAr'(0,1,0,2,4)(5)(1)(4)
       + xEArR(0,1,0,2,4)(4)(3)  = 0
 c202: x(0,1,0,2,3,2)(0) - xEAr(0,1,0,2,4)(5)(1) + xEArR(0,1,0,2,4)(5)(1)  = 0
 c203: x(0,1,0,2,3,2)(0) - xEAr(0,1,0,2,4)(5)(2) + xEArR(0,1,0,2,4)(5)(2)  = 0
 c204: x(0,1,0,2,3,2)(0) - xEAr(0,1,0,2,4)(5)(3) + xEArR(0,1,0,2,4)(5)(3)  = 0
 c205: x(0,1,0,2,3,2)(0) - xEAr(0,1,0,2,4)(5)(4) + xEArR(0,1,0,2,4)(5)(4)  = 0
 c206: x(0,1,0,2,3,2)(0) - xEAr(0,1,0,2,5)(2)(1) + xEAr'(0,1,0,2,5)(3)(1)(5)
       + xEAr'(0,1,0,2,5)(4)(2)(5) + xEAr'(0,1,0,2,5)(5)(3)(5)
       + xEArR(0,1,0,2,5)(2)(1)  = 0
 c207: x(0,1,0,2,3,2)(0) - xEAr(0,1,0,2,5)(3)(1) + xEAr'(0,1,0,2,5)(4)(1)(5)
       + xEAr'(0,1,0,2,5)(5)(2)(5) + xEArR(0,1,0,2,5)(3)(1)  = 0
 c208: x(0,1,0,2,3,2)(0) - xEAr(0,1,0,2,5)(3)(2) + xEAr'(0,1,0,2,5)(4)(1)(5)
       + xEAr'(0,1,0,2,5)(5)(2)(5) + xEArR(0,1,0,2,5)(3)(2)  = 0
 c209: x(0,1,0,2,3,2)(0) - xEAr(0,1,0,2,5)(4)(1) + xEAr'(0,1,0,2,5)(5)(1)(5)
       + xEArR(0,1,0,2,5)(4)(1)  = 0
 c210: x(0,1,0,2,3,2)(0) - xEAr(0,1,0,2,5)(4)(2) + xEAr'(0,1,0,2,5)(5)(1)(5)
       + xEArR(0,1,0,2,5)(4)(2)  = 0
 c211: x(0,1,0,2,3,2)(0) - xEAr(0,1,0,2,5)(4)(3) + xEAr'(0,1,0,2,5)(5)(1)(5)
       + xEArR(0,1,0,2,5)(4)(3)  = 0
 c212: x(0,1,0,2,3,2)(0) - xEAr(0,1,0,2,5)(5)(1) + xEArR(0,1,0,2,5)(5)(1)  = 0
 c213: x(0,1,0,2,3,2)(0) - xEAr(0,1,0,2,5)(5)(2) + xEArR(0,1,0,2,5)(5)(2)  = 0
 c214: x(0,1,0,2,3,2)(0) - xEAr(0,1,0,2,5)(5)(3) + xEArR(0,1,0,2,5)(5)(3)  = 0
 c215: x(0,1,0,2,3,2)(0) - xEAr(0,1,0,2,5)(5)(4) + xEArR(0,1,0,2,5)(5)(4)  = 0
 c216: x(0,1,0,2,3,2)(0) - xEAr(0,1,0,2,6)(2)(1) + xEAr'(0,1,0,2,6)(3)(1)(6)
       + xEAr'(0,1,0,2,6)(4)(2)(6) + xEAr'(0,1,0,2,6)(5)(3)(6)
       + xEArR(0,1,0,2,6)(2)(1)  = 0
 c217: x(0,1,0,2,3,2)(0) - xEAr(0,1,0,2,6)(3)(1) + xEAr'(0,1,0,2,6)(4)(1)(6)
       + xEAr'(0,1,0,2,6)(5)(2)(6) + xEArR(0,1,0,2,6)(3)(1)  = 0
 c218: x(0,1,0,2,3,2)(0) - xEAr(0,1,0,2,6)(3)(2) + xEAr'(0,1,0,2,6)(4)(1)(6)
       + xEAr'(0,1,0,2,6)(5)(2)(6) + xEArR(0,1,0,2,6)(3)(2)  = 0
 c219: x(0,1,0,2,3,2)(0) - xEAr(0,1,0,2,6)(4)(1) + xEAr'(0,1,0,2,6)(5)(1)(6)
       + xEArR(0,1,0,2,6)(4)(1)  = 0
 c220: x(0,1,0,2,3,2)(0) - xEAr(0,1,0,2,6)(4)(2) + xEAr'(0,1,0,2,6)(5)(1)(6)
       + xEArR(0,1,0,2,6)(4)(2)  = 0
 c221: x(0,1,0,2,3,2)(0) - xEAr(0,1,0,2,6)(4)(3) + xEAr'(0,1,0,2,6)(5)(1)(6)
       + xEArR(0,1,0,2,6)(4)(3)  = 0
 c222: x(0,1,0,2,3,2)(0) - xEAr(0,1,0,2,6)(5)(1) + xEArR(0,1,0,2,6)(5)(1)  = 0
 c223: x(0,1,0,2,3,2)(0) - xEAr(0,1,0,2,6)(5)(2) + xEArR(0,1,0,2,6)(5)(2)  = 0
 c224: x(0,1,0,2,3,2)(0) - xEAr(0,1,0,2,6)(5)(3) + xEArR(0,1,0,2,6)(5)(3)  = 0
 c225: x(0,1,0,2,3,2)(0) - xEAr(0,1,0,2,6)(5)(4) + xEArR(0,1,0,2,6)(5)(4)  = 0
 c226: x(0,1,0,2,3,2)(0) - xEAr(0,1,0,2,7)(2)(1) + xEAr'(0,1,0,2,7)(3)(1)(7)
       + xEAr'(0,1,0,2,7)(4)(2)(7) + xEAr'(0,1,0,2,7)(5)(3)(7)
       + xEArR(0,1,0,2,7)(2)(1)  = 0
 c227: x(0,1,0,2,3,2)(0) - xEAr(0,1,0,2,7)(3)(1) + xEAr'(0,1,0,2,7)(4)(1)(7)
       + xEAr'(0,1,0,2,7)(5)(2)(7) + xEArR(0,1,0,2,7)(3)(1)  = 0
 c228: x(0,1,0,2,3,2)(0) - xEAr(0,1,0,2,7)(3)(2) + xEAr'(0,1,0,2,7)(4)(1)(7)
       + xEAr'(0,1,0,2,7)(5)(2)(7) + xEArR(0,1,0,2,7)(3)(2)  = 0
 c229: x(0,1,0,2,3,2)(0) - xEAr(0,1,0,2,7)(4)(1) + xEAr'(0,1,0,2,7)(5)(1)(7)
       + xEArR(0,1,0,2,7)(4)(1)  = 0
 c230: x(0,1,0,2,3,2)(0) - xEAr(0,1,0,2,7)(4)(2) + xEAr'(0,1,0,2,7)(5)(1)(7)
       + xEArR(0,1,0,2,7)(4)(2)  = 0
 c231: x(0,1,0,2,3,2)(0) - xEAr(0,1,0,2,7)(4)(3) + xEAr'(0,1,0,2,7)(5)(1)(7)
       + xEArR(0,1,0,2,7)(4)(3)  = 0
 c232: x(0,1,0,2,3,2)(0) - xEAr(0,1,0,2,7)(5)(1) + xEArR(0,1,0,2,7)(5)(1)  = 0
 c233: x(0,1,0,2,3,2)(0) - xEAr(0,1,0,2,7)(5)(2) + xEArR(0,1,0,2,7)(5)(2)  = 0
 c234: x(0,1,0,2,3,2)(0) - xEAr(0,1,0,2,7)(5)(3) + xEArR(0,1,0,2,7)(5)(3)  = 0
 c235: x(0,1,0,2,3,2)(0) - xEAr(0,1,0,2,7)(5)(4) + xEArR(0,1,0,2,7)(5)(4)  = 0
End
